&CONTROL
calculation='relax'
title='Optimization of ZnS unit cell'
restart_mode='from_scratch',
prefix      = "ZnS_relax"
etot_conv_thr=1.0D-04
forc_conv_thr=1.0D-03
nstep=1000
pseudo_dir='/scratch/22gg91j21/spha/pseudo/'
outdir='/scratch/22gg91j21/spha/pseudo/output',
/

&SYSTEM
ibrav=2
celldm(1)=5.441778
celldm(2)=5.441778
celldm(3)=5.441778
nat=8,
ntyp=2,
nspin=1,
ecutrho=  473
ecutwfc=  43
occupations='smearing',
smearing='gaussian',
degauss=0.02
nosym=.true
/
&ELECTRONS

diagonalization='david'
conv_thr=1.0d-6
mixing_beta=0.4
electron_maxstep=200,

/
&IONS

ion_dynamics='bfgs'
/

&CELL
cell_dynamics='bfgs',
cell_dofree='all'

/
ATOMIC_SPECIES
Zn 65.38    Zn.pbe-dnl-rrkjus_psl.1.0.0.UPF
S  32.065   S.pbe-nl-rrkjus_psl.1.0.0.UPF

ATOMIC_POSITIONS (angstrom)

Zn          0.000000           0.000000           0.000000
Zn          0.000000           2.720889           2.720889
Zn          2.720889           0.000000           2.720889
Zn          2.720889           2.720889           0.000000
S           1.360446           1.360446           1.360446
S           1.360446           4.081332           4.081332
S           4.081332           1.360446           4.081332
S           4.081332           4.081332           1.360446

K_POINTS (AUTOMATIC)
8 8 8 0 0 0
