&CONTROL
    calculation = 'nscf'
    max_seconds =  8.64000e+04
    title='Optimization of ZnS unit cell'
    restart_mode='from_scratch',
    prefix      = "ZnS_relax"
    pseudo_dir  = '/scratch/22gg91j21/spha/dos/pseudo'
    outdir= '/scratch/22gg91j21/spha/pseudo/output'
    tprnfor     = .TRUE.
    tstress     = .TRUE.
/

&SYSTEM
ibrav = 1    
a =  5.44178e+00
nat = 8,
nbnd = 52,
ntyp = 2,
nspin = 1,
ecutrho  =  4.73000e+02
ecutwfc  =  4.40000e+01
degauss  =  1.00000e-02
occupations = 'fixed'
smearing    = 'gaussian'
/

&ELECTRONS
    conv_thr         =  1.00000e-06
    electron_maxstep = 200
    mixing_beta      =  7.00000e-01
    startingpot      = "atomic"
    startingwfc      = "atomic+random"
/

&DOS
    degauss =  1.00000e-02
    deltae  =  1.00000e-02
    emax    =  5.00000e+01
    emin    = -5.00000e+01
    ngauss  = 0
/

&PROJWFC
    degauss =  1.00000e-02
    deltae  =  1.00000e-02
    emax    =  5.00000e+01
    emin    = -5.00000e+01
    ngauss  = 0
/

K_POINTS {automatic}
16 16 16  0 0 0

ATOMIC_SPECIES
Zn     65.38  Zn.pbe-dnl-rrkjus_psl.1.0.0.UPF
S      32.065  S.pbe-nl-rrkjus_psl.1.0.0.UPF

ATOMIC_POSITIONS {angstrom}
Zn      0.000000   0.000000   0.000000
Zn      0.000000   2.720889   2.720889
Zn      2.720889   0.000000   2.720889
Zn      2.720889   2.720889   0.000000
S       1.360446   1.360446   1.360446
S       1.360446   4.081332   4.081332
S       4.081332   1.360446   4.081332
S       4.081332   4.081332   1.360446


