&BANDS
  prefix = "ZnS_relax"
  outdir = '/scratch/22gg91j21/spha/pseudo/output'
  filband = 'zns_bands.dat'
/
